120
3536
60
0 1
0 2
0 5
0 6
0 7
0 10
0 13
0 15
0 18
0 21
0 23
0 28
0 30
0 35
0 36
0 37
0 40
0 45
0 49
0 54
0 55
0 63
0 64
0 68
0 70
0 71
0 73
0 74
0 75
0 80
0 82
0 85
0 86
0 87
0 88
0 90
0 92
0 95
0 97
0 99
0 103
0 106
0 109
0 112
0 119
1 2
1 5
1 6
1 11
1 13
1 15
1 16
1 17
1 18
1 20
1 22
1 23
1 25
1 29
1 30
1 32
1 33
1 37
1 39
1 40
1 43
1 44
1 46
1 47
1 48
1 49
1 51
1 52
1 54
1 59
1 60
1 62
1 63
1 65
1 70
1 72
1 73
1 76
1 77
1 80
1 82
1 83
1 85
1 89
1 94
1 96
1 97
1 98
1 99
1 100
1 101
1 103
1 104
1 105
1 106
1 108
1 110
1 111
1 113
1 114
1 116
1 118
1 119
2 3
2 5
2 6
2 7
2 9
2 11
2 16
2 17
2 19
2 20
2 22
2 25
2 28
2 34
2 35
2 36
2 37
2 38
2 39
2 40
2 42
2 43
2 44
2 45
2 46
2 48
2 49
2 50
2 51
2 53
2 54
2 56
2 59
2 60
2 61
2 62
2 63
2 65
2 66
2 67
2 68
2 69
2 70
2 74
2 76
2 79
2 80
2 81
2 83
2 84
2 85
2 86
2 87
2 88
2 90
2 91
2 92
2 93
2 94
2 96
2 97
2 101
2 103
2 104
2 108
2 111
2 114
2 115
2 116
2 117
2 118
2 119
3 5
3 6
3 9
3 11
3 14
3 16
3 19
3 20
3 22
3 23
3 26
3 28
3 30
3 31
3 32
3 34
3 35
3 36
3 37
3 40
3 41
3 42
3 43
3 47
3 49
3 52
3 53
3 62
3 65
3 68
3 69
3 70
3 71
3 72
3 73
3 74
3 75
3 76
3 80
3 81
3 82
3 89
3 91
3 92
3 97
3 99
3 100
3 102
3 103
3 105
3 107
3 110
3 111
3 112
3 116
3 118
4 6
4 11
4 17
4 23
4 26
4 27
4 28
4 30
4 34
4 35
4 36
4 38
4 40
4 44
4 45
4 46
4 48
4 49
4 50
4 51
4 52
4 55
4 56
4 57
4 60
4 61
4 63
4 66
4 67
4 68
4 69
4 71
4 73
4 74
4 75
4 77
4 79
4 80
4 82
4 86
4 88
4 94
4 99
4 104
4 106
4 107
4 109
4 110
4 111
4 112
4 116
5 6
5 7
5 9
5 11
5 12
5 13
5 15
5 16
5 18
5 20
5 21
5 22
5 23
5 25
5 28
5 29
5 30
5 32
5 34
5 35
5 37
5 44
5 50
5 56
5 57
5 58
5 60
5 61
5 64
5 66
5 68
5 69
5 73
5 78
5 79
5 80
5 81
5 84
5 85
5 95
5 97
5 99
5 100
5 101
5 103
5 104
5 105
5 106
5 109
5 110
5 111
5 112
5 113
5 115
5 117
6 7
6 10
6 11
6 12
6 14
6 15
6 16
6 17
6 18
6 19
6 22
6 26
6 28
6 29
6 30
6 33
6 35
6 36
6 40
6 41
6 42
6 43
6 44
6 45
6 46
6 50
6 51
6 53
6 54
6 55
6 56
6 58
6 60
6 61
6 63
6 64
6 65
6 67
6 68
6 69
6 71
6 74
6 75
6 76
6 77
6 78
6 79
6 80
6 82
6 83
6 84
6 89
6 90
6 92
6 94
6 100
6 103
6 104
6 105
6 107
6 108
6 109
6 112
6 113
6 114
6 116
6 117
6 119
7 8
7 9
7 10
7 11
7 13
7 18
7 20
7 23
7 24
7 28
7 29
7 32
7 33
7 36
7 45
7 47
7 49
7 53
7 59
7 60
7 62
7 65
7 66
7 67
7 70
7 72
7 74
7 75
7 77
7 78
7 84
7 85
7 88
7 89
7 91
7 92
7 94
7 97
7 99
7 104
7 106
7 108
7 111
7 113
7 115
7 117
7 119
8 9
8 10
8 11
8 14
8 15
8 17
8 19
8 21
8 22
8 23
8 25
8 26
8 27
8 28
8 29
8 30
8 32
8 33
8 36
8 37
8 38
8 39
8 40
8 41
8 42
8 43
8 45
8 47
8 48
8 49
8 51
8 55
8 58
8 60
8 61
8 63
8 64
8 67
8 68
8 70
8 71
8 73
8 76
8 77
8 79
8 80
8 85
8 88
8 91
8 93
8 94
8 96
8 102
8 103
8 105
8 108
8 111
8 113
8 114
8 117
9 10
9 11
9 13
9 14
9 16
9 17
9 19
9 22
9 23
9 26
9 28
9 32
9 34
9 37
9 38
9 39
9 43
9 45
9 47
9 52
9 53
9 55
9 57
9 58
9 60
9 61
9 62
9 64
9 66
9 68
9 72
9 73
9 75
9 76
9 80
9 82
9 84
9 86
9 90
9 92
9 93
9 96
9 98
9 101
9 103
9 109
9 110
9 112
9 114
9 115
9 116
9 117
10 12
10 14
10 16
10 18
10 19
10 20
10 25
10 26
10 28
10 34
10 36
10 38
10 39
10 40
10 43
10 44
10 46
10 47
10 48
10 50
10 52
10 54
10 57
10 58
10 62
10 64
10 70
10 71
10 72
10 77
10 78
10 80
10 81
10 82
10 83
10 85
10 88
10 90
10 91
10 92
10 93
10 95
10 97
10 101
10 102
10 103
10 105
10 106
10 107
10 112
10 116
10 118
11 15
11 16
11 17
11 18
11 19
11 20
11 22
11 23
11 24
11 26
11 29
11 30
11 31
11 34
11 38
11 39
11 40
11 42
11 43
11 45
11 47
11 48
11 54
11 55
11 56
11 57
11 58
11 60
11 62
11 63
11 65
11 66
11 69
11 71
11 73
11 74
11 75
11 77
11 79
11 80
11 81
11 82
11 83
11 84
11 89
11 90
11 92
11 93
11 94
11 95
11 97
11 99
11 108
11 110
11 111
11 117
12 15
12 16
12 17
12 19
12 20
12 21
12 27
12 30
12 31
12 32
12 33
12 38
12 42
12 43
12 45
12 46
12 47
12 50
12 51
12 54
12 55
12 56
12 57
12 63
12 65
12 66
12 69
12 71
12 72
12 73
12 74
12 76
12 77
12 79
12 83
12 84
12 85
12 89
12 93
12 95
12 97
12 98
12 99
12 100
12 101
12 103
12 105
12 111
12 112
12 114
12 115
12 116
12 118
13 16
13 17
13 19
13 20
13 22
13 24
13 26
13 27
13 37
13 38
13 42
13 44
13 45
13 51
13 52
13 54
13 55
13 57
13 58
13 60
13 61
13 62
13 63
13 65
13 66
13 67
13 70
13 74
13 75
13 76
13 80
13 83
13 85
13 88
13 93
13 94
13 95
13 97
13 98
13 99
13 105
13 106
13 109
13 110
13 112
13 114
13 118
14 15
14 17
14 20
14 22
14 23
14 25
14 27
14 29
14 30
14 35
14 36
14 41
14 42
14 44
14 46
14 52
14 53
14 54
14 55
14 56
14 57
14 58
14 59
14 61
14 62
14 66
14 69
14 70
14 75
14 77
14 78
14 79
14 81
14 83
14 84
14 86
14 88
14 89
14 90
14 91
14 92
14 93
14 94
14 96
14 97
14 98
14 99
14 101
14 104
14 107
14 108
14 109
14 111
14 112
14 113
14 114
14 115
14 117
14 119
15 18
15 20
15 21
15 26
15 27
15 31
15 32
15 34
15 36
15 37
15 42
15 43
15 46
15 47
15 48
15 49
15 50
15 51
15 52
15 54
15 55
15 57
15 58
15 63
15 65
15 69
15 70
15 71
15 73
15 74
15 76
15 78
15 80
15 83
15 86
15 90
15 94
15 97
15 98
15 99
15 100
15 101
15 105
15 106
15 107
15 108
15 109
15 113
15 114
15 116
15 117
15 118
16 17
16 18
16 22
16 23
16 27
16 29
16 30
16 31
16 32
16 33
16 34
16 37
16 38
16 42
16 44
16 45
16 50
16 51
16 52
16 53
16 54
16 59
16 60
16 61
16 62
16 64
16 65
16 66
16 68
16 70
16 73
16 74
16 75
16 76
16 78
16 80
16 81
16 84
16 87
16 89
16 90
16 91
16 92
16 93
16 95
16 96
16 98
16 99
16 108
16 115
16 117
16 118
17 18
17 19
17 22
17 23
17 27
17 31
17 32
17 33
17 34
17 35
17 37
17 42
17 44
17 46
17 47
17 48
17 50
17 52
17 53
17 59
17 62
17 65
17 67
17 68
17 70
17 76
17 77
17 79
17 80
17 82
17 83
17 85
17 87
17 88
17 90
17 92
17 93
17 94
17 95
17 96
17 100
17 103
17 104
17 105
17 107
17 111
17 113
17 114
17 115
17 117
17 119
18 19
18 20
18 24
18 25
18 27
18 29
18 31
18 34
18 37
18 42
18 43
18 44
18 45
18 46
18 48
18 51
18 53
18 54
18 55
18 58
18 60
18 62
18 64
18 67
18 73
18 74
18 75
18 76
18 79
18 80
18 81
18 85
18 92
18 93
18 95
18 96
18 97
18 99
18 101
18 103
18 104
18 105
18 106
18 107
18 108
18 110
18 112
18 114
18 116
18 117
19 24
19 25
19 27
19 34
19 37
19 39
19 41
19 45
19 47
19 48
19 49
19 52
19 53
19 54
19 58
19 61
19 64
19 68
19 71
19 72
19 73
19 74
19 75
19 76
19 78
19 79
19 80
19 83
19 86
19 87
19 88
19 90
19 91
19 92
19 93
19 94
19 98
19 102
19 103
19 113
19 115
20 21
20 22
20 23
20 25
20 26
20 28
20 29
20 31
20 34
20 35
20 36
20 37
20 38
20 41
20 42
20 44
20 46
20 50
20 51
20 53
20 57
20 58
20 59
20 61
20 65
20 66
20 68
20 70
20 72
20 73
20 79
20 80
20 82
20 83
20 84
20 85
20 87
20 92
20 95
20 97
20 99
20 103
20 105
20 110
20 112
20 117
21 22
21 29
21 30
21 32
21 33
21 41
21 45
21 46
21 47
21 48
21 49
21 50
21 53
21 56
21 57
21 58
21 59
21 62
21 64
21 65
21 68
21 69
21 70
21 72
21 73
21 74
21 75
21 78
21 79
21 80
21 84
21 85
21 91
21 92
21 95
21 97
21 100
21 102
21 104
21 105
21 106
21 108
21 109
21 110
21 114
21 115
22 24
22 25
22 26
22 27
22 30
22 32
22 34
22 37
22 38
22 39
22 40
22 43
22 45
22 46
22 47
22 48
22 49
22 52
22 55
22 57
22 59
22 61
22 65
22 66
22 68
22 69
22 73
22 74
22 75
22 76
22 79
22 80
22 82
22 83
22 85
22 87
22 88
22 96
22 97
22 98
22 100
22 101
22 102
22 103
22 105
22 107
22 113
22 114
22 115
22 116
22 119
23 24
23 25
23 28
23 31
23 32
23 33
23 34
23 35
23 36
23 41
23 42
23 43
23 47
23 50
23 51
23 52
23 54
23 57
23 59
23 62
23 63
23 64
23 67
23 70
23 74
23 75
23 78
23 80
23 82
23 83
23 88
23 90
23 92
23 93
23 94
23 96
23 97
23 99
23 100
23 102
23 104
23 105
23 112
23 113
24 26
24 28
24 29
24 30
24 31
24 37
24 39
24 41
24 43
24 44
24 45
24 46
24 48
24 51
24 52
24 55
24 56
24 58
24 59
24 60
24 63
24 64
24 69
24 71
24 72
24 74
24 76
24 77
24 78
24 79
24 82
24 87
24 91
24 94
24 98
24 99
24 101
24 102
24 103
24 104
24 105
24 106
24 107
24 108
24 109
24 113
24 114
24 116
24 118
24 119
25 26
25 27
25 31
25 32
25 34
25 35
25 36
25 37
25 38
25 41
25 42
25 44
25 45
25 46
25 47
25 49
25 51
25 52
25 53
25 61
25 63
25 64
25 66
25 69
25 72
25 73
25 76
25 77
25 79
25 82
25 83
25 84
25 85
25 86
25 88
25 89
25 91
25 94
25 97
25 100
25 103
25 104
25 106
25 108
25 110
25 112
25 115
25 116
25 117
25 118
25 119
26 28
26 29
26 32
26 33
26 35
26 36
26 37
26 38
26 39
26 40
26 41
26 42
26 43
26 44
26 45
26 49
26 51
26 52
26 53
26 57
26 59
26 60
26 61
26 62
26 63
26 66
26 67
26 68
26 69
26 70
26 71
26 72
26 75
26 83
26 84
26 86
26 87
26 89
26 92
26 93
26 101
26 102
26 104
26 105
26 106
26 107
26 110
26 111
26 113
26 114
26 115
26 119
27 30
27 32
27 33
27 34
27 35
27 36
27 38
27 39
27 43
27 44
27 45
27 46
27 47
27 49
27 50
27 51
27 52
27 53
27 56
27 59
27 60
27 61
27 63
27 67
27 74
27 79
27 82
27 83
27 84
27 86
27 88
27 89
27 91
27 96
27 98
27 99
27 101
27 104
27 105
27 109
27 110
27 111
27 115
27 117
28 30
28 31
28 34
28 36
28 37
28 38
28 40
28 44
28 45
28 47
28 48
28 49
28 50
28 52
28 54
28 56
28 58
28 59
28 63
28 64
28 66
28 68
28 71
28 73
28 75
28 76
28 78
28 81
28 82
28 83
28 85
28 86
28 92
28 94
28 98
28 99
28 101
28 102
28 103
28 104
28 107
28 108
28 114
28 115
28 116
28 118
29 33
29 35
29 36
29 37
29 38
29 40
29 41
29 43
29 45
29 46
29 49
29 50
29 51
29 54
29 55
29 56
29 57
29 58
29 63
29 64
29 65
29 71
29 72
29 73
29 75
29 76
29 77
29 79
29 80
29 81
29 82
29 83
29 85
29 86
29 87
29 88
29 89
29 92
29 93
29 94
29 97
29 99
29 100
29 102
29 103
29 107
29 108
29 110
29 111
29 114
29 117
29 119
30 31
30 32
30 33
30 34
30 35
30 37
30 38
30 42
30 43
30 45
30 47
30 49
30 50
30 51
30 52
30 53
30 54
30 57
30 58
30 60
30 62
30 65
30 66
30 67
30 69
30 72
30 73
30 74
30 77
30 79
30 80
30 81
30 82
30 84
30 86
30 87
30 89
30 90
30 92
30 94
30 95
30 96
30 98
30 99
30 100
30 102
30 105
30 109
30 111
30 113
30 114
30 118
30 119
31 33
31 35
31 38
31 41
31 43
31 44
31 46
31 47
31 49
31 51
31 52
31 53
31 54
31 56
31 57
31 58
31 61
31 62
31 64
31 67
31 68
31 71
31 72
31 75
31 76
31 77
31 78
31 79
31 84
31 85
31 86
31 87
31 88
31 89
31 91
31 92
31 94
31 98
31 99
31 100
31 101
31 102
31 104
31 107
31 108
31 112
31 115
31 117
31 118
31 119
32 34
32 36
32 37
32 38
32 39
32 40
32 42
32 44
32 48
32 49
32 50
32 52
32 57
32 58
32 60
32 62
32 64
32 67
32 69
32 72
32 75
32 77
32 78
32 79
32 82
32 84
32 90
32 91
32 92
32 93
32 95
32 97
32 99
32 100
32 101
32 103
32 106
32 107
32 108
32 109
32 110
32 112
32 114
32 117
32 118
33 34
33 35
33 37
33 38
33 39
33 42
33 43
33 44
33 45
33 46
33 47
33 48
33 50
33 55
33 56
33 57
33 58
33 59
33 60
33 63
33 65
33 66
33 67
33 68
33 69
33 70
33 72
33 74
33 76
33 77
33 78
33 79
33 80
33 85
33 89
33 93
33 95
33 98
33 99
33 101
33 103
33 104
33 106
33 109
33 110
33 114
33 115
33 118
34 38
34 40
34 46
34 48
34 50
34 52
34 58
34 60
34 62
34 63
34 68
34 70
34 71
34 76
34 78
34 80
34 82
34 84
34 86
34 87
34 88
34 90
34 92
34 93
34 96
34 99
34 102
34 104
34 105
34 106
34 109
34 114
34 116
34 117
34 118
34 119
35 36
35 40
35 44
35 46
35 51
35 54
35 55
35 57
35 59
35 61
35 63
35 64
35 67
35 73
35 74
35 75
35 77
35 81
35 82
35 84
35 86
35 87
35 88
35 89
35 90
35 97
35 98
35 99
35 101
35 103
35 104
35 106
35 111
35 112
35 113
35 114
35 116
35 117
35 118
35 119
36 37
36 38
36 40
36 42
36 45
36 46
36 55
36 58
36 59
36 61
36 62
36 64
36 65
36 68
36 70
36 72
36 73
36 74
36 75
36 76
36 80
36 81
36 84
36 86
36 87
36 90
36 94
36 95
36 96
36 98
36 99
36 100
36 101
36 102
36 103
36 106
36 107
36 110
36 111
36 115
36 117
36 118
37 38
37 39
37 41
37 49
37 53
37 54
37 56
37 62
37 66
37 67
37 69
37 72
37 73
37 75
37 76
37 79
37 80
37 81
37 82
37 83
37 84
37 85
37 86
37 87
37 91
37 96
37 99
37 102
37 104
37 107
37 108
37 110
37 111
37 112
37 113
37 114
37 116
37 117
37 119
38 39
38 40
38 41
38 42
38 43
38 45
38 46
38 47
38 48
38 49
38 50
38 51
38 52
38 53
38 54
38 56
38 61
38 64
38 65
38 67
38 69
38 70
38 71
38 75
38 76
38 78
38 84
38 91
38 92
38 96
38 98
38 99
38 101
38 106
38 108
38 112
38 113
38 118
38 119
39 40
39 42
39 44
39 47
39 48
39 49
39 51
39 52
39 53
39 54
39 55
39 58
39 63
39 66
39 67
39 68
39 69
39 70
39 71
39 74
39 78
39 79
39 81
39 84
39 85
39 87
39 91
39 92
39 96
39 100
39 102
39 106
39 107
39 108
39 114
39 115
39 116
39 118
40 41
40 44
40 46
40 51
40 52
40 53
40 54
40 55
40 56
40 60
40 62
40 63
40 65
40 66
40 67
40 68
40 69
40 70
40 71
40 88
40 90
40 92
40 93
40 94
40 96
40 99
40 100
40 101
40 102
40 103
40 104
40 110
40 112
40 113
40 117
40 119
41 42
41 43
41 45
41 50
41 53
41 57
41 62
41 66
41 71
41 72
41 78
41 81
41 82
41 83
41 85
41 91
41 92
41 96
41 97
41 101
41 103
41 106
41 109
41 112
41 113
41 115
41 116
42 47
42 48
42 50
42 52
42 57
42 58
42 59
42 63
42 66
42 71
42 75
42 77
42 78
42 79
42 81
42 86
42 87
42 90
42 91
42 92
42 94
42 96
42 98
42 101
42 103
42 105
42 106
42 109
42 110
42 111
42 112
42 114
42 115
42 117
43 50
43 52
43 53
43 55
43 57
43 58
43 61
43 64
43 66
43 69
43 70
43 71
43 72
43 74
43 76
43 79
43 81
43 82
43 85
43 86
43 89
43 91
43 92
43 97
43 98
43 100
43 102
43 103
43 105
43 108
43 111
43 112
43 114
43 115
43 116
44 50
44 62
44 63
44 64
44 65
44 68
44 74
44 75
44 76
44 78
44 79
44 81
44 84
44 85
44 87
44 88
44 90
44 95
44 96
44 101
44 104
44 105
44 106
44 107
44 108
44 110
44 111
44 112
44 117
44 118
44 119
45 48
45 51
45 53
45 54
45 55
45 56
45 58
45 60
45 61
45 64
45 65
45 67
45 69
45 71
45 75
45 76
45 78
45 82
45 84
45 85
45 88
45 92
45 93
45 94
45 96
45 98
45 99
45 103
45 104
45 106
45 107
45 109
45 113
45 114
45 115
45 116
45 118
45 119
46 47
46 49
46 52
46 53
46 54
46 55
46 58
46 59
46 60
46 61
46 62
46 64
46 65
46 67
46 68
46 73
46 74
46 78
46 83
46 84
46 89
46 95
46 98
46 99
46 102
46 103
46 107
46 108
46 111
46 112
46 113
46 116
46 118
47 48
47 51
47 52
47 55
47 57
47 60
47 61
47 64
47 65
47 69
47 70
47 71
47 73
47 76
47 78
47 80
47 82
47 83
47 84
47 86
47 89
47 91
47 95
47 96
47 98
47 101
47 102
47 103
47 105
47 107
47 110
47 111
47 114
47 116
47 117
47 119
48 53
48 54
48 55
48 56
48 57
48 58
48 61
48 62
48 69
48 71
48 72
48 74
48 76
48 77
48 78
48 79
48 80
48 81
48 83
48 85
48 88
48 89
48 90
48 92
48 96
48 97
48 98
48 106
48 107
48 110
48 111
48 112
48 115
48 117
48 119
49 50
49 51
49 53
49 54
49 55
49 56
49 58
49 59
49 62
49 63
49 64
49 65
49 69
49 70
49 72
49 74
49 75
49 79
49 81
49 83
49 84
49 86
49 87
49 92
49 93
49 97
49 99
49 100
49 102
49 105
49 106
49 107
49 108
49 110
49 112
49 113
49 115
49 117
49 118
50 51
50 55
50 60
50 64
50 65
50 68
50 70
50 74
50 77
50 79
50 80
50 84
50 85
50 86
50 89
50 90
50 92
50 93
50 94
50 100
50 101
50 104
50 105
50 106
50 107
50 108
50 109
50 115
50 116
50 117
50 119
51 52
51 56
51 62
51 63
51 65
51 66
51 67
51 68
51 69
51 74
51 76
51 78
51 79
51 80
51 82
51 95
51 96
51 97
51 99
51 101
51 104
51 105
51 109
51 112
51 114
51 115
51 116
51 117
51 118
51 119
52 54
52 55
52 57
52 63
52 66
52 68
52 69
52 74
52 79
52 88
52 89
52 90
52 91
52 92
52 93
52 95
52 98
52 100
52 101
52 103
52 105
52 109
52 110
52 111
52 112
52 113
52 115
52 116
52 117
52 119
53 56
53 60
53 64
53 66
53 67
53 69
53 72
53 75
53 79
53 81
53 84
53 85
53 87
53 88
53 90
53 91
53 92
53 93
53 94
53 97
53 98
53 99
53 100
53 102
53 103
53 104
53 106
53 109
53 111
53 114
53 115
53 116
53 118
54 55
54 62
54 63
54 65
54 67
54 68
54 70
54 71
54 72
54 73
54 74
54 75
54 76
54 78
54 79
54 85
54 86
54 87
54 89
54 95
54 97
54 100
54 101
54 103
54 104
54 110
54 112
54 114
54 117
54 119
55 57
55 58
55 59
55 60
55 64
55 66
55 68
55 71
55 74
55 79
55 80
55 81
55 82
55 83
55 84
55 85
55 86
55 89
55 90
55 92
55 99
55 100
55 103
55 104
55 105
55 106
55 107
55 109
55 111
55 112
55 114
55 115
55 116
55 118
56 57
56 58
56 60
56 61
56 62
56 63
56 66
56 69
56 73
56 74
56 75
56 80
56 81
56 87
56 92
56 93
56 94
56 95
56 98
56 99
56 100
56 101
56 102
56 103
56 108
56 111
56 115
56 118
56 119
57 60
57 64
57 65
57 66
57 68
57 72
57 73
57 74
57 77
57 78
57 79
57 85
57 88
57 90
57 92
57 93
57 94
57 96
57 97
57 99
57 101
57 102
57 103
57 104
57 105
57 106
57 107
57 108
57 111
57 113
57 114
57 116
57 118
58 59
58 61
58 62
58 63
58 64
58 65
58 66
58 67
58 68
58 71
58 72
58 73
58 74
58 77
58 79
58 80
58 81
58 86
58 87
58 88
58 89
58 90
58 91
58 94
58 95
58 98
58 99
58 100
58 101
58 102
58 104
58 105
58 106
58 108
58 109
58 112
58 114
58 116
58 117
59 61
59 62
59 63
59 64
59 67
59 71
59 72
59 73
59 74
59 75
59 76
59 78
59 80
59 82
59 89
59 90
59 91
59 93
59 95
59 97
59 98
59 100
59 101
59 102
59 103
59 104
59 105
59 107
59 108
59 109
59 112
59 113
59 114
59 115
59 117
59 119
60 65
60 67
60 69
60 73
60 76
60 78
60 81
60 82
60 83
60 85
60 86
60 87
60 88
60 92
60 93
60 94
60 95
60 97
60 98
60 102
60 107
60 108
60 109
60 110
60 111
60 113
60 115
60 116
60 118
61 63
61 64
61 66
61 67
61 68
61 69
61 71
61 72
61 73
61 74
61 75
61 76
61 78
61 79
61 84
61 85
61 87
61 88
61 89
61 90
61 93
61 96
61 97
61 100
61 104
61 108
61 110
61 112
61 115
61 119
62 63
62 64
62 68
62 69
62 71
62 73
62 74
62 86
62 87
62 92
62 94
62 95
62 97
62 101
62 105
62 109
62 111
62 112
62 113
62 116
62 117
62 118
62 119
63 66
63 67
63 77
63 80
63 83
63 86
63 87
63 89
63 92
63 94
63 97
63 102
63 106
63 107
63 109
63 112
63 114
63 117
63 118
64 65
64 67
64 69
64 70
64 74
64 77
64 79
64 80
64 82
64 85
64 90
64 92
64 94
64 97
64 98
64 99
64 106
64 107
64 110
64 111
64 112
64 113
64 114
64 115
64 118
65 66
65 68
65 69
65 75
65 77
65 78
65 79
65 81
65 82
65 83
65 86
65 87
65 88
65 89
65 92
65 94
65 95
65 96
65 104
65 105
65 106
65 108
65 110
65 111
65 115
65 116
65 117
65 118
65 119
66 71
66 74
66 76
66 77
66 84
66 87
66 88
66 89
66 90
66 91
66 92
66 94
66 97
66 98
66 104
66 105
66 107
66 110
66 114
66 115
67 68
67 71
67 72
67 76
67 77
67 78
67 81
67 84
67 87
67 89
67 90
67 91
67 93
67 94
67 95
67 96
67 97
67 99
67 101
67 102
67 103
67 104
67 105
67 107
67 111
67 112
67 113
67 115
67 116
67 117
68 69
68 70
68 74
68 75
68 78
68 80
68 81
68 83
68 84
68 85
68 86
68 87
68 88
68 90
68 94
68 95
68 98
68 99
68 102
68 104
68 110
68 113
68 118
68 119
69 70
69 72
69 73
69 75
69 76
69 79
69 82
69 84
69 85
69 86
69 89
69 90
69 91
69 96
69 97
69 98
69 99
69 100
69 103
69 104
69 105
69 106
69 107
69 108
69 109
69 110
69 116
69 117
70 71
70 75
70 76
70 77
70 78
70 79
70 83
70 84
70 87
70 93
70 94
70 98
70 103
70 104
70 105
70 106
70 107
70 109
70 110
70 111
70 112
70 113
70 115
70 118
70 119
71 74
71 75
71 77
71 78
71 79
71 82
71 83
71 84
71 86
71 87
71 89
71 90
71 92
71 93
71 94
71 96
71 97
71 99
71 100
71 102
71 103
71 104
71 106
71 110
71 114
71 116
71 119
72 73
72 74
72 77
72 78
72 79
72 82
72 83
72 84
72 85
72 88
72 91
72 94
72 96
72 98
72 100
72 101
72 102
72 105
72 106
72 108
72 109
72 113
72 115
72 117
73 74
73 75
73 77
73 80
73 84
73 88
73 89
73 94
73 95
73 96
73 98
73 99
73 103
73 104
73 105
73 107
73 111
73 112
73 113
73 115
73 117
73 118
74 75
74 78
74 79
74 80
74 81
74 82
74 84
74 85
74 86
74 87
74 88
74 90
74 93
74 94
74 95
74 96
74 97
74 99
74 100
74 103
74 107
74 108
74 109
74 113
74 115
74 117
74 118
74 119
75 77
75 78
75 82
75 83
75 84
75 85
75 86
75 88
75 90
75 91
75 92
75 93
75 94
75 95
75 100
75 101
75 102
75 103
75 107
75 111
75 112
75 116
76 78
76 85
76 86
76 89
76 90
76 91
76 92
76 94
76 95
76 96
76 103
76 105
76 106
76 110
76 111
76 114
76 116
76 117
76 119
77 78
77 79
77 81
77 82
77 84
77 85
77 88
77 90
77 92
77 98
77 100
77 101
77 102
77 103
77 104
77 106
77 107
77 108
77 110
77 111
77 112
77 113
77 115
77 116
77 118
78 82
78 84
78 89
78 91
78 95
78 97
78 98
78 101
78 106
78 107
78 108
78 109
78 113
78 114
78 115
78 116
78 119
79 80
79 81
79 82
79 84
79 85
79 88
79 89
79 92
79 93
79 97
79 100
79 101
79 102
79 104
79 105
79 109
79 112
79 114
79 115
79 117
80 83
80 84
80 87
80 88
80 91
80 95
80 97
80 100
80 102
80 103
80 104
80 107
80 108
80 109
80 111
80 112
80 114
80 115
80 116
80 118
80 119
81 82
81 83
81 87
81 91
81 93
81 99
81 102
81 106
81 107
81 108
81 109
81 110
81 114
81 116
82 83
82 86
82 89
82 91
82 92
82 94
82 97
82 98
82 102
82 105
82 107
82 109
82 110
82 111
82 112
82 113
82 114
83 84
83 86
83 87
83 88
83 90
83 93
83 97
83 98
83 100
83 101
83 104
83 105
83 106
83 113
83 114
83 118
84 87
84 89
84 90
84 91
84 93
84 94
84 95
84 96
84 97
84 100
84 101
84 102
84 105
84 110
84 112
84 114
84 116
84 117
85 86
85 90
85 97
85 99
85 100
85 102
85 104
85 107
85 111
85 112
85 114
85 118
85 119
86 87
86 88
86 90
86 91
86 92
86 93
86 94
86 97
86 103
86 106
86 110
86 111
86 112
86 113
86 115
86 117
86 119
87 88
87 89
87 91
87 93
87 95
87 96
87 97
87 101
87 103
87 107
87 108
87 109
87 110
87 115
87 116
88 91
88 92
88 93
88 94
88 95
88 96
88 99
88 101
88 102
88 105
88 106
88 107
88 115
88 116
88 118
89 91
89 92
89 93
89 94
89 96
89 97
89 98
89 99
89 101
89 102
89 103
89 107
89 109
89 111
89 113
89 114
89 115
89 119
90 91
90 92
90 94
90 95
90 97
90 101
90 105
90 107
90 108
90 111
90 112
90 115
90 116
90 117
90 118
91 93
91 95
91 100
91 102
91 103
91 105
91 107
91 110
91 111
91 112
91 114
91 115
91 117
91 118
91 119
92 94
92 95
92 96
92 97
92 101
92 103
92 106
92 109
92 110
92 113
92 116
92 117
92 119
93 94
93 97
93 99
93 102
93 104
93 106
93 107
93 109
93 115
93 119
94 95
94 97
94 98
94 99
94 101
94 102
94 103
94 106
94 109
95 97
95 100
95 101
95 103
95 105
95 108
95 109
95 112
95 113
95 115
95 118
95 119
96 97
96 98
96 100
96 104
96 105
96 107
96 109
96 111
96 112
96 113
96 114
96 115
96 117
96 118
97 98
97 100
97 101
97 102
97 107
97 108
97 109
97 110
97 113
97 115
97 116
97 118
98 101
98 104
98 106
98 107
98 109
98 110
98 116
98 117
99 100
99 102
99 103
99 105
99 107
99 108
99 109
99 112
99 114
99 116
99 118
100 101
100 102
100 103
100 104
100 105
100 108
100 109
100 110
100 111
100 113
100 114
100 118
100 119
101 102
101 104
101 105
101 106
101 108
101 109
101 111
101 112
101 115
101 117
102 105
102 109
102 111
102 112
102 113
102 114
102 117
102 118
103 108
103 110
103 111
103 112
103 113
103 115
103 116
103 117
103 118
104 105
104 106
104 107
104 112
104 115
104 118
104 119
105 108
105 110
105 116
105 118
106 107
106 112
106 113
106 116
106 117
106 118
106 119
107 109
107 110
107 111
107 112
107 114
107 115
107 116
107 118
107 119
108 109
108 110
108 114
108 115
108 116
108 117
109 110
109 112
109 115
110 112
110 113
110 114
110 115
110 118
111 113
111 115
111 117
111 118
112 113
112 114
112 115
112 117
112 118
112 119
113 114
113 116
113 117
113 118
114 116
114 117
114 119
115 116
116 117
116 118
116 119
117 119
118 119
2 32
25 65
0 51
34 93
31 36
87 107
20 110
90 97
15 111
73 104
55 57
9 83
5 115
16 94
35 81
13 95
18 71
47 75
33 69
41 100
80 101
39 106
7 78
84 105
29 58
68 98
17 70
11 44
52 82
49 56
8 114
6 38
66 103
86 119
42 72
4 50
63 112
46 109
3 19
67 118
79 102
30 54
61 116
14 60
37 45
10 40
48 92
12 77
64 74
28 108
1 88
21 43
26 59
22 113
23 27
89 117
62 91
76 99
24 85
53 96
